; benchmark generated from python API
(set-info :status unknown)
(declare-datatypes ((RealState 0)) (((RMk1 (rval1 Real)) (RMk2 (rval2 Real)))))
 (assert
 (forall ((|v9:0| Real) )(exists ((|v8:1_st| RealState) (val!1035 Real) )(forall ((|v7:2| Real) )(exists ((|v6:3_st| RealState) (val!1036 Real) )(forall ((|v5:4| Real) )(exists ((|v4:5_st| RealState) (val!1037 Real) )(forall ((|v3:6| Real) )(exists ((|v2:7_st| RealState) (val!1038 Real) )(forall ((|v1:8| Real) )(exists ((|v0:9_st| RealState) (val!1039 Real) )(let ((?x728 (+ (+ (* (- 3.0) |v9:0|) (* 15.0 |v1:8|)) (* (- 18.0) (rval2 |v4:5_st|)))))
 (let (($x945 (not (= |v0:9_st| (RMk1 val!1039)))))
 (let (($x729 (not (= |v2:7_st| (RMk1 val!1038)))))
 (let (($x501 (not (= |v6:3_st| (RMk1 val!1036)))))
 (and (not (= |v8:1_st| (RMk1 val!1035))) $x501 (not (= |v4:5_st| (RMk1 val!1037))) $x729 $x945 (<= ?x728 20.0)))))))
 )
 )
 )
 )
 )
 )
 )
 )
 )
 )
(check-sat)
